wmc_benchmarks/WMCBenchSingleMea/qpeinexact_nativegates_ibm_qiskit_opt0_2.qasm.cnf
p cnf 37 120
c p weight -5 1 0
c p weight 5 -1 0
c p weight 9 6.12323399573676603586882014729198302312846062338790031898128063403419218957424163818359375E-17 0
c p weight -9 1 0
c p weight 10 1 0
c p weight -10 1 0
c p weight -7 1 0
c p weight 7 -1 0
c p weight -11 1 0
c p weight 11 -1 0
c p weight -13 1 0
c p weight 13 -1 0
c p weight 16 0.70710678118654752440084436210485 0
c p weight -16 1 0
c p weight -14 1 0
c p weight 14 -1 0
c p weight -17 1 0
c p weight 17 -1 0
c p weight 22 0.70710678118654752440084436210485 0
c p weight -22 1 0
c p weight -20 1 0
c p weight 20 -1 0
c p weight -23 1 0
c p weight 23 -1 0
c p weight 28 0.70710678118654752440084436210485 0
c p weight -28 1 0
c p weight -26 1 0
c p weight 26 -1 0
c p weight -29 1 0
c p weight 29 -1 0
c p weight 33 6.12323399573676603586882014729198302312846062338790031898128063403419218957424163818359375E-17 0
c p weight -33 1 0
c p weight 34 1 0
c p weight -34 1 0
c p weight -31 1 0
c p weight 31 -1 0
c p weight -35 1 0
c p weight 35 -1 0
c p weight 37 0.5 0
c p weight -37 1 0
37 0
-3 0
-1 0
-5 1 0
-5 2 0
5 -1 -2 0
6 1 -2 0
6 -1 2 0
-6 1 2 0
-6 -1 -2 0
-7 8 0
-7 6 0
-7 -1 0
7 -8 1 -6 0
8 -1 6 0
-8 1 6 0
-9 6 0
8 -9 -1 0
-8 -9 1 0
8 9 1 -6 0
-8 9 -1 -6 0
-10 6 0
8 -10 1 0
-8 -10 -1 0
8 10 -1 -6 0
-8 10 1 -6 0
-11 8 0
-11 6 0
11 -8 -6 0
12 8 -6 0
12 -8 6 0
-12 8 6 0
-12 -8 -6 0
13 -4 0
-13 4 0
-14 3 0
-14 4 0
-14 -15 0
14 15 -3 -4 0
15 3 -4 0
-15 3 4 0
16 -3 0
-16 3 0
-17 3 0
-17 12 0
-17 8 -15 0
-17 -8 15 0
17 -3 8 15 -12 0
17 -3 -8 -15 -12 0
19 3 -8 0
19 -3 8 0
-19 3 8 0
-19 -3 -8 0
18 15 -12 0
18 -15 12 0
-18 15 12 0
-18 -15 -12 0
-20 21 0
-20 19 0
-20 -12 0
20 -21 -19 12 0
21 19 -12 0
-21 19 12 0
22 -19 0
-22 19 0
-23 3 0
-23 21 0
-23 19 -18 0
-23 -19 18 0
23 -3 19 18 -21 0
23 -3 -19 -18 -21 0
25 3 -19 0
25 -3 19 0
-25 3 19 0
-25 -3 -19 0
24 18 -21 0
24 -18 21 0
-24 18 21 0
-24 -18 -21 0
-26 25 0
-26 21 0
-26 -27 0
26 27 -25 -21 0
27 25 -21 0
-27 25 21 0
28 -25 0
-28 25 0
-29 25 0
-29 27 0
29 -25 -27 0
30 25 -27 0
30 -25 27 0
-30 25 27 0
-30 -25 -27 0
-31 32 0
-31 30 0
-31 -25 0
31 -32 25 -30 0
32 -25 30 0
-32 25 30 0
-33 30 0
32 -33 -25 0
-32 -33 25 0
32 33 25 -30 0
-32 33 -25 -30 0
-34 30 0
32 -34 25 0
-32 -34 -25 0
32 34 -25 -30 0
-32 34 25 -30 0
-35 32 0
-35 30 0
35 -32 -30 0
36 32 -30 0
36 -32 30 0
-36 32 30 0
-36 -32 -30 0
-32 0
-3 0
-24 0
